sing20191013.12
TTAA 63121 48698
99006 29856 26004 00080 29056 14503 92769 22207 13008
85501 18238 11006 70141 09022 06006 50586 04956 06511
40758 15361 04003 30969 29965 02513 25096 39771 05010
20245 52759 36002 15423 68942 09511 10658 81938 07517
88999
77999=
TTCC 63125 48698
70862 73366 29522 50060 71173 30516
88987 82341 08012
77999=
TTDD 6312/ 48698
11987 82341 22918 82545 33841 81756 44779 73166 55741
72368 66676 73967 77657 70172 88590 71970 99563 69374
11506 72371 22355 62383
21212 11953 19002 22859 23010 33804 20001 44754 33516
55725 29516 66621 27030 77581 26028 88554 26522 99508
29517 11483 33019 22470 32520 33459 35510 44456 01509
55445 35510 66438 34015 77425 35521 88419 36018 99410
02511 11408 03010 22383 10002 33371 22010 44355 26517=
